%CHK=sulfaz_scan
%Mem=2000MB
%NProcShared=2
#MP2/6-31G(d) NoSymm Opt=ModRedundant

SULFAZ, "sulfonamidazole" exocyclic scan (model compound for ACAZAM, acetazolamide)

0 1
 C                  0.89610000    2.81030000    0.00080000
 H                  1.06024714    3.86763411    0.00135257
 N                  1.90260000    1.87020000    0.00000000
 N                  1.37720000    0.53800000    0.00000000
 C                  0.00000000    0.53800000    0.00000000
 S                 -0.61450000    2.09310000    0.00080000
 S                 -1.03820000   -0.90790000   -0.00080000
 O                 -0.90145078   -1.59600671   -1.20767919
 O                 -0.90157151   -1.59737046    1.20523621
 N                 -2.49016841   -0.00476725   -0.00037362
 H                 -3.01464629   -0.21637767   -0.82510689
 H                 -3.02971722   -0.24136776    0.80763799

D 6 5 7 10 0. S 12 15.



